# TSP Tour Result
# Total Distance: 3587
# Tour Order:
0 279 1 2 278 3 4 5 276 275 274 8 7 6 9 10 11 12 13 14 273 272 271 270 15 16 17 18 19 20 127 126 125 124 29 30 28 27 26 25 21 24 22 23 31 32 33 123 122 121 120 119 118 156 157 158 159 174 160 161 162 163 164 165 166 167 168 100 99 98 101 102 103 104 105 106 172 173 107 108 88 80 78 79 81 82 83 84 64 63 62 58 43 44 45 46 47 48 49 51 50 52 53 54 55 56 57 61 117 60 59 42 41 40 39 38 37 35 34 36 65 66 67 68 69 70 71 72 73 74 75 76 77 85 115 86 112 87 89 90 91 92 93 94 95 96 97 109 110 111 113 114 116 169 170 171 128 153 154 152 155 151 150 176 175 180 179 178 181 182 183 184 186 185 187 188 189 190 191 177 149 129 130 131 132 133 134 135 136 137 138 139 140 141 142 143 199 201 202 203 204 147 146 145 144 198 197 196 192 193 200 195 194 148 265 264 263 262 261 260 259 258 257 256 253 252 207 205 206 211 212 215 216 219 220 251 208 209 210 213 214 217 218 221 222 223 224 225 226 227 228 229 250 249 246 243 240 239 238 237 236 235 234 242 241 244 245 230 231 232 233 248 247 254 255 266 267 268 269 277 0
